c
c
c
c
c
20 210
0 0 -1
0 1 29
0 2 28
0 3 2
0 4 10
0 5 23
0 6 23
0 7 13
0 8 21
0 9 24
0 10 19
0 11 30
0 12 23
0 13 3
0 14 29
0 15 7
0 16 23
0 17 18
0 18 4
0 19 3
1 1 -1
1 2 17
1 3 1
1 4 26
1 5 16
1 6 29
1 7 25
1 8 17
1 9 6
1 10 16
1 11 25
1 12 25
1 13 14
1 14 9
1 15 15
1 16 22
1 17 10
1 18 8
1 19 5
2 2 -1
2 3 15
2 4 12
2 5 18
2 6 9
2 7 16
2 8 20
2 9 10
2 10 6
2 11 19
2 12 18
2 13 11
2 14 9
2 15 7
2 16 28
2 17 6
2 18 5
2 19 29
3 3 -1
3 4 27
3 5 30
3 6 13
3 7 27
3 8 22
3 9 8
3 10 12
3 11 3
3 12 5
3 13 2
3 14 3
3 15 18
3 16 14
3 17 26
3 18 29
3 19 16
4 4 -1
4 5 11
4 6 28
4 7 20
4 8 9
4 9 2
4 10 18
4 11 27
4 12 19
4 13 25
4 14 11
4 15 30
4 16 18
4 17 29
4 18 2
4 19 27
5 5 -1
5 6 9
5 7 1
5 8 21
5 9 25
5 10 23
5 11 7
5 12 29
5 13 22
5 14 29
5 15 17
5 16 28
5 17 13
5 18 29
5 19 8
6 6 -1
6 7 29
6 8 25
6 9 21
6 10 14
6 11 20
6 12 20
6 13 15
6 14 12
6 15 25
6 16 2
6 17 17
6 18 29
6 19 26
7 7 -1
7 8 28
7 9 14
7 10 2
7 11 25
7 12 10
7 13 24
7 14 24
7 15 15
7 16 26
7 17 7
7 18 29
7 19 15
8 8 -1
8 9 23
8 10 14
8 11 30
8 12 16
8 13 26
8 14 28
8 15 17
8 16 16
8 17 10
8 18 11
8 19 4
9 9 -1
9 10 23
9 11 30
9 12 23
9 13 11
9 14 7
9 15 27
9 16 1
9 17 24
9 18 23
9 19 29
10 10 -1
10 11 7
10 12 18
10 13 30
10 14 26
10 15 12
10 16 18
10 17 23
10 18 13
10 19 29
11 11 -1
11 12 16
11 13 15
11 14 7
11 15 16
11 16 23
11 17 25
11 18 11
11 19 8
12 12 -1
12 13 16
12 14 13
12 15 29
12 16 28
12 17 18
12 18 20
12 19 26
13 13 -1
13 14 8
13 15 24
13 16 14
13 17 9
13 18 4
13 19 26
14 14 -1
14 15 20
14 16 10
14 17 14
14 18 6
14 19 8
15 15 -1
15 16 1
15 17 19
15 18 9
15 19 29
16 16 -1
16 17 25
16 18 2
16 19 1
17 17 -1
17 18 4
17 19 6
18 18 -1
18 19 10
19 19 -1
